sat
(
  (define-fun inv ((x!0 Int) (x!1 Int)) Bool
    (and (or (not (<= x!1 6)) (not (<= x!0 93)) (not (>= x!0 7)))
         (not (<= x!1 (- 1)))
         (not (>= x!0 101))
         (or (not (<= x!1 49)) (not (= x!0 50)))
         (or (not (<= x!0 51)) (not (<= x!1 48)) (not (>= x!0 49)))
         (or (not (>= x!0 48)) (not (<= x!1 47)) (not (<= x!0 52)))
         (or (not (<= x!0 53)) (not (<= x!1 46)) (not (>= x!0 47)))
         (or (not (<= x!1 45)) (not (>= x!0 46)) (not (<= x!0 54)))
         (or (not (>= x!0 45)) (not (<= x!0 55)) (not (<= x!1 44)))
         (or (not (>= x!0 44)) (not (<= x!1 43)) (not (<= x!0 56)))
         (or (not (>= x!0 43)) (not (<= x!0 57)) (not (<= x!1 42)))
         (or (not (<= x!1 41)) (not (>= x!0 42)) (not (<= x!0 58)))
         (or (not (>= x!0 41)) (not (<= x!0 59)) (not (<= x!1 40)))
         (or (not (<= x!0 60)) (not (<= x!1 39)) (not (>= x!0 40)))
         (or (not (<= x!1 38)) (not (>= x!0 39)) (not (<= x!0 61)))
         (or (not (>= x!0 38)) (not (<= x!0 62)) (not (<= x!1 37)))
         (or (not (<= x!1 36)) (not (>= x!0 37)) (not (<= x!0 63)))
         (or (not (>= x!0 36)) (not (<= x!0 64)) (not (<= x!1 35)))
         (or (not (<= x!0 65)) (not (<= x!1 34)) (not (>= x!0 35)))
         (or (not (<= x!1 32)) (not (>= x!0 33)) (not (<= x!0 67)))
         (or (not (>= x!0 32)) (not (<= x!0 68)) (not (<= x!1 31)))
         (or (not (<= x!1 29)) (not (>= x!0 30)) (not (<= x!0 70)))
         (or (not (>= x!0 28)) (not (<= x!0 72)) (not (<= x!1 27)))
         (or (not (<= x!0 73)) (not (<= x!1 26)) (not (>= x!0 27)))
         (or (not (<= x!1 25)) (not (>= x!0 26)) (not (<= x!0 74)))
         (or (not (>= x!0 25)) (not (<= x!0 75)) (not (<= x!1 24)))
         (or (not (<= x!1 23)) (not (>= x!0 24)) (not (<= x!0 76)))
         (or (not (>= x!0 23)) (not (<= x!0 77)) (not (<= x!1 22)))
         (or (not (<= x!0 78)) (not (<= x!1 21)) (not (>= x!0 22)))
         (or (not (<= x!1 20)) (not (>= x!0 21)) (not (<= x!0 79)))
         (or (not (>= x!0 20)) (not (<= x!0 80)) (not (<= x!1 19)))
         (or (not (<= x!1 18)) (not (>= x!0 19)) (not (<= x!0 81)))
         (or (not (>= x!0 18)) (not (<= x!0 82)) (not (<= x!1 17)))
         (or (not (<= x!0 83)) (not (<= x!1 16)) (not (>= x!0 17)))
         (or (not (<= x!1 15)) (not (>= x!0 16)) (not (<= x!0 84)))
         (or (not (>= x!0 15)) (not (<= x!0 85)) (not (<= x!1 14)))
         (or (not (<= x!1 13)) (not (>= x!0 14)) (not (<= x!0 86)))
         (or (not (>= x!0 13)) (not (<= x!0 87)) (not (<= x!1 12)))
         (or (not (<= x!0 88)) (not (<= x!1 11)) (not (>= x!0 12)))
         (or (not (<= x!1 10)) (not (>= x!0 11)) (not (<= x!0 89)))
         (or (not (>= x!0 10)) (not (<= x!0 90)) (not (<= x!1 9)))
         (or (not (<= x!1 8)) (not (>= x!0 9)) (not (<= x!0 91)))
         (or (not (>= x!0 8)) (not (<= x!0 92)) (not (<= x!1 7)))
         (or (not (<= x!0 94)) (not (<= x!1 5)) (not (>= x!0 6)))
         (or (not (<= x!1 4)) (not (>= x!0 5)) (not (<= x!0 95)))
         (or (not (<= x!0 96)) (not (<= x!1 3)) (not (>= x!0 4)))
         (or (not (>= x!0 3)) (not (<= x!0 97)) (not (<= x!1 2)))
         (or (not (<= x!0 98)) (not (<= x!1 1)) (not (>= x!0 2)))
         (or (not (<= x!0 99)) (not (<= x!1 0)) (not (>= x!0 1)))
         (not (>= x!1 51))
         (not (<= x!0 (- 1)))
         (or (not (>= x!0 51)) (not (>= x!1 50)))
         (or (not (>= x!0 52)) (not (>= x!1 49)))
         (or (not (>= x!0 53)) (not (>= x!1 48)))
         (or (not (>= x!0 54)) (not (>= x!1 47)))
         (or (not (>= x!0 55)) (not (>= x!1 46)))
         (or (not (>= x!0 56)) (not (>= x!1 45)))
         (or (not (>= x!0 57)) (not (>= x!1 44)))
         (or (not (>= x!0 58)) (not (>= x!1 43)))
         (or (not (>= x!0 59)) (not (>= x!1 42)))
         (or (not (>= x!0 60)) (not (>= x!1 41)))
         (or (not (>= x!0 61)) (not (>= x!1 40)))
         (or (not (>= x!0 62)) (not (>= x!1 39)))
         (or (not (>= x!0 63)) (not (>= x!1 38)))
         (or (not (>= x!0 64)) (not (>= x!1 37)))
         (or (not (>= x!1 36)) (not (>= x!0 65)))
         (or (not (>= x!0 66)) (not (>= x!1 35)))
         (or (not (>= x!0 67)) (not (>= x!1 34)))
         (or (not (>= x!0 68)) (not (>= x!1 33)))
         (or (not (>= x!0 69)) (not (>= x!1 32)))
         (or (not (>= x!0 70)) (not (>= x!1 31)))
         (or (not (>= x!0 71)) (not (>= x!1 30)))
         (or (not (>= x!0 72)) (not (>= x!1 29)))
         (or (not (>= x!0 73)) (not (>= x!1 28)))
         (or (not (>= x!0 74)) (not (>= x!1 27)))
         (or (not (>= x!0 75)) (not (>= x!1 26)))
         (or (not (>= x!0 76)) (not (>= x!1 25)))
         (or (not (>= x!0 77)) (not (>= x!1 24)))
         (or (not (>= x!0 78)) (not (>= x!1 23)))
         (or (not (>= x!0 79)) (not (>= x!1 22)))
         (or (not (>= x!0 80)) (not (>= x!1 21)))
         (or (not (>= x!0 81)) (not (>= x!1 20)))
         (or (not (>= x!0 82)) (not (>= x!1 19)))
         (or (not (>= x!0 83)) (not (>= x!1 18)))
         (or (not (>= x!0 84)) (not (>= x!1 17)))
         (or (not (>= x!0 85)) (not (>= x!1 16)))
         (or (not (>= x!0 86)) (not (>= x!1 15)))
         (or (not (>= x!0 87)) (not (>= x!1 14)))
         (or (not (>= x!0 88)) (not (>= x!1 13)))
         (or (not (>= x!0 89)) (not (>= x!1 12)))
         (or (not (>= x!0 90)) (not (>= x!1 11)))
         (or (not (>= x!0 91)) (not (>= x!1 10)))
         (or (not (>= x!0 92)) (not (>= x!1 9)))
         (or (not (>= x!0 93)) (not (>= x!1 8)))
         (or (not (>= x!0 94)) (not (>= x!1 7)))
         (or (not (>= x!0 95)) (not (>= x!1 6)))
         (or (not (>= x!0 96)) (not (>= x!1 5)))
         (or (not (>= x!0 97)) (not (>= x!1 4)))
         (or (not (>= x!0 98)) (not (>= x!1 3)))
         (or (not (>= x!0 99)) (not (>= x!1 2)))
         (or (not (>= x!0 100)) (not (>= x!1 1)))
         (or (not (>= x!1 1)) (not (<= x!0 0)))
         (or (not (<= x!0 1)) (not (>= x!1 2)))
         (or (not (<= x!0 2)) (not (>= x!1 3)))
         (or (not (<= x!0 3)) (not (>= x!1 4)))
         (or (not (<= x!0 4)) (not (>= x!1 5)))
         (or (not (<= x!0 5)) (not (>= x!1 6)))
         (or (not (<= x!0 6)) (not (>= x!1 7)))
         (or (not (<= x!0 7)) (not (>= x!1 8)))
         (or (not (<= x!0 8)) (not (>= x!1 9)))
         (or (not (<= x!0 9)) (not (>= x!1 10)))
         (or (not (<= x!0 10)) (not (>= x!1 11)))
         (or (not (<= x!0 11)) (not (>= x!1 12)))
         (or (not (<= x!0 12)) (not (>= x!1 13)))
         (or (not (<= x!0 13)) (not (>= x!1 14)))
         (or (not (<= x!0 14)) (not (>= x!1 15)))
         (or (not (<= x!0 15)) (not (>= x!1 16)))
         (or (not (<= x!0 16)) (not (>= x!1 17)))
         (or (not (<= x!0 17)) (not (>= x!1 18)))
         (or (not (<= x!0 18)) (not (>= x!1 19)))
         (or (not (<= x!0 19)) (not (>= x!1 20)))
         (or (not (<= x!0 20)) (not (>= x!1 21)))
         (or (not (<= x!0 21)) (not (>= x!1 22)))
         (or (not (<= x!0 22)) (not (>= x!1 23)))
         (or (not (<= x!0 23)) (not (>= x!1 24)))
         (or (not (<= x!0 24)) (not (>= x!1 25)))
         (or (not (<= x!0 25)) (not (>= x!1 26)))
         (or (not (<= x!0 26)) (not (>= x!1 27)))
         (or (not (<= x!0 27)) (not (>= x!1 28)))
         (or (not (<= x!0 28)) (not (>= x!1 29)))
         (or (not (<= x!0 29)) (not (>= x!1 30)))
         (or (not (<= x!0 30)) (not (>= x!1 31)))
         (or (not (<= x!0 31)) (not (>= x!1 32)))
         (or (not (<= x!0 32)) (not (>= x!1 33)))
         (or (not (<= x!0 33)) (not (>= x!1 34)))
         (or (not (<= x!0 34)) (not (>= x!1 35)))
         (or (not (<= x!0 35)) (not (>= x!1 36)))
         (or (not (<= x!0 36)) (not (>= x!1 37)))
         (or (not (<= x!0 37)) (not (>= x!1 38)))
         (or (not (<= x!0 38)) (not (>= x!1 39)))
         (or (not (<= x!0 39)) (not (>= x!1 40)))
         (or (not (<= x!0 40)) (not (>= x!1 41)))
         (or (not (<= x!0 41)) (not (>= x!1 42)))
         (or (not (<= x!0 42)) (not (>= x!1 43)))
         (or (not (<= x!0 43)) (not (>= x!1 44)))
         (or (not (<= x!0 44)) (not (>= x!1 45)))
         (or (not (<= x!0 45)) (not (>= x!1 46)))
         (or (not (<= x!0 46)) (not (>= x!1 47)))
         (or (not (<= x!0 47)) (not (>= x!1 48)))
         (or (not (<= x!0 48)) (not (>= x!1 49)))
         (or (not (<= x!0 49)) (not (>= x!1 50)))
         (or (not (<= x!0 66)) (not (<= x!1 33)) (not (>= x!0 34)))
         (or (not (<= x!0 69)) (not (<= x!1 30)) (not (>= x!0 31)))
         (or (not (<= x!1 28)) (not (>= x!0 29)) (not (<= x!0 71)))))
)
